NAME : tsp_346_sol.txt
COMMENT : OR-Tools Guided Local Search
TYPE : TOUR
DIMENSION : 50
COST : 5832
STATUS : ROUTING_SUCCESS
GAP : 0.00% (Reference Solution)
TOUR_SECTION
1
36
35
20
46
50
17
45
31
13
34
23
47
6
8
27
32
26
9
24
37
3
22
33
19
43
2
10
18
12
14
41
11
15
44
7
4
21
38
39
16
30
48
28
25
49
42
29
5
40
-1
